#3x3_4_conGames# 22 2 31 1000000000
2 2 2 2 2 2 2 2 2 2 2 2 2 2 2 2 2 2 2 2 2 2 
1 0 0 2
0 0
1 955
1 1 0 2
0 0
1 855
1 2 0 2
0 0
1 755
1 3 0 2
0 0
1 575
1 4 0 2
0 0
1 715
1 5 0 2
0 0
1 575
1 6 0 2
0 0
1 525
1 7 0 2
0 0
1 185
1 8 0 2
0 0
1 125
1 9 0 2
0 0
1 905
1 10 0 2
0 0
1 395
1 11 0 2
0 0
1 965
1 12 0 2
0 0
1 175
1 13 0 2
0 0
1 495
1 14 0 2
0 0
1 285
1 15 0 2
0 0
1 1005
1 16 0 2
0 0
1 135
1 17 0 2
0 0
1 905
1 18 0 2
0 0
1 815
1 19 0 2
0 0
1 605
1 20 0 2
0 0
1 425
1 21 0 2
0 0
1 565
2 0 9 0 4
0 1 0
1 0 10000
0 0 10000
1 1 10000
6 1 2 3 19 8 11 0 64
1 0 0 1 1 1 10000
0 1 0 1 1 0 10000
0 1 1 1 0 1 0
1 1 0 0 1 0 10000
0 0 1 0 1 0 0
0 1 1 0 0 0 10000
1 0 0 0 0 0 10000
0 1 1 1 1 1 10000
1 0 0 1 0 0 0
1 1 1 1 1 0 10000
0 0 1 0 0 1 0
0 1 1 0 1 1 0
0 0 1 1 0 0 0
0 1 1 1 0 0 10000
1 0 1 1 0 1 0
0 0 1 0 1 1 10000
1 1 1 0 1 0 10000
0 1 1 0 0 1 10000
1 0 1 0 0 0 10000
0 0 1 1 1 1 10000
1 1 1 1 0 0 10000
1 0 1 1 1 1 10000
1 0 0 1 1 0 10000
0 0 1 0 0 0 10000
1 1 1 0 0 1 10000
0 1 1 0 1 0 10000
1 0 1 0 1 1 0
0 0 1 1 0 1 10000
0 0 0 1 1 0 10000
1 0 1 1 0 0 10000
1 1 1 0 1 1 10000
1 0 1 0 0 1 10000
1 1 1 1 0 1 10000
0 0 1 1 1 0 10000
0 0 0 1 0 1 10000
0 0 0 0 0 0 0
1 1 1 0 0 0 10000
1 0 1 0 1 0 10000
0 1 0 0 1 0 0
0 0 0 1 1 1 10000
1 1 0 1 1 0 0
0 0 0 0 1 1 10000
1 0 0 1 0 1 10000
0 1 0 0 0 1 0
0 0 0 1 0 0 10000
1 1 0 1 0 1 0
0 1 0 1 0 0 0
0 0 0 0 0 1 10000
1 1 0 0 0 0 10000
0 1 0 0 1 1 10000
1 0 0 0 1 0 0
1 1 0 1 1 1 10000
0 1 0 1 1 1 10000
0 0 0 0 1 0 10000
1 1 0 0 1 1 0
0 1 0 0 0 0 10000
1 0 0 0 0 1 0
1 1 0 1 0 0 10000
0 1 0 1 0 1 10000
0 1 1 1 1 0 0
1 1 0 0 0 1 10000
1 0 1 1 1 0 0
1 1 1 1 1 1 0
1 0 0 0 1 1 10000
6 4 5 6 10 12 15 0 64
1 0 0 1 1 1 10000
0 1 0 1 1 0 10000
0 1 1 1 0 1 0
1 1 0 0 1 0 10000
0 0 1 0 1 0 0
0 1 1 0 0 0 10000
1 0 0 0 0 0 10000
0 1 1 1 1 1 10000
1 0 0 1 0 0 0
1 1 1 1 1 0 10000
0 0 1 0 0 1 0
0 1 1 0 1 1 0
0 0 1 1 0 0 0
0 1 1 1 0 0 10000
1 0 1 1 0 1 0
0 0 1 0 1 1 10000
1 1 1 0 1 0 10000
0 1 1 0 0 1 10000
1 0 1 0 0 0 10000
0 0 1 1 1 1 10000
1 1 1 1 0 0 10000
1 0 1 1 1 1 10000
1 0 0 1 1 0 10000
0 0 1 0 0 0 10000
1 1 1 0 0 1 10000
0 1 1 0 1 0 10000
1 0 1 0 1 1 0
0 0 1 1 0 1 10000
0 0 0 1 1 0 10000
1 0 1 1 0 0 10000
1 1 1 0 1 1 10000
1 0 1 0 0 1 10000
1 1 1 1 0 1 10000
0 0 1 1 1 0 10000
0 0 0 1 0 1 10000
0 0 0 0 0 0 0
1 1 1 0 0 0 10000
1 0 1 0 1 0 10000
0 1 0 0 1 0 0
0 0 0 1 1 1 10000
1 1 0 1 1 0 0
0 0 0 0 1 1 10000
1 0 0 1 0 1 10000
0 1 0 0 0 1 0
0 0 0 1 0 0 10000
1 1 0 1 0 1 0
0 1 0 1 0 0 0
0 0 0 0 0 1 10000
1 1 0 0 0 0 10000
0 1 0 0 1 1 10000
1 0 0 0 1 0 0
1 1 0 1 1 1 10000
0 1 0 1 1 1 10000
0 0 0 0 1 0 10000
1 1 0 0 1 1 0
0 1 0 0 0 0 10000
1 0 0 0 0 1 0
1 1 0 1 0 0 10000
0 1 0 1 0 1 10000
0 1 1 1 1 0 0
1 1 0 0 0 1 10000
1 0 1 1 1 0 0
1 1 1 1 1 1 0
1 0 0 0 1 1 10000
4 7 8 20 2 0 16
1 0 1 1 10000
1 1 0 1 0
1 0 0 0 0
0 1 1 0 10000
1 0 1 0 10000
0 0 0 1 10000
0 0 1 1 10000
1 0 0 1 10000
0 1 0 0 0
1 1 1 1 10000
0 0 0 0 10000
0 0 1 0 10000
0 1 0 1 10000
1 1 1 0 0
0 1 1 1 10000
1 1 0 0 10000
4 9 10 0 4 0 16
1 0 1 1 10000
1 1 0 1 10000
1 0 0 0 10000
0 1 1 0 0
1 0 1 0 0
0 0 0 1 10000
0 0 1 1 10000
1 0 0 1 0
0 1 0 0 10000
1 1 1 1 0
0 0 0 0 0
0 0 1 0 10000
0 1 0 1 0
1 1 1 0 10000
0 1 1 1 10000
1 1 0 0 10000
6 11 12 13 3 5 17 0 64
1 0 0 1 1 1 10000
0 1 0 1 1 0 10000
0 1 1 1 0 1 0
1 1 0 0 1 0 10000
0 0 1 0 1 0 0
0 1 1 0 0 0 10000
1 0 0 0 0 0 10000
0 1 1 1 1 1 10000
1 0 0 1 0 0 0
1 1 1 1 1 0 10000
0 0 1 0 0 1 0
0 1 1 0 1 1 0
0 0 1 1 0 0 0
0 1 1 1 0 0 10000
1 0 1 1 0 1 0
0 0 1 0 1 1 10000
1 1 1 0 1 0 10000
0 1 1 0 0 1 10000
1 0 1 0 0 0 10000
0 0 1 1 1 1 10000
1 1 1 1 0 0 10000
1 0 1 1 1 1 10000
1 0 0 1 1 0 10000
0 0 1 0 0 0 10000
1 1 1 0 0 1 10000
0 1 1 0 1 0 10000
1 0 1 0 1 1 0
0 0 1 1 0 1 10000
0 0 0 1 1 0 10000
1 0 1 1 0 0 10000
1 1 1 0 1 1 10000
1 0 1 0 0 1 10000
1 1 1 1 0 1 10000
0 0 1 1 1 0 10000
0 0 0 1 0 1 10000
0 0 0 0 0 0 0
1 1 1 0 0 0 10000
1 0 1 0 1 0 10000
0 1 0 0 1 0 0
0 0 0 1 1 1 10000
1 1 0 1 1 0 0
0 0 0 0 1 1 10000
1 0 0 1 0 1 10000
0 1 0 0 0 1 0
0 0 0 1 0 0 10000
1 1 0 1 0 1 0
0 1 0 1 0 0 0
0 0 0 0 0 1 10000
1 1 0 0 0 0 10000
0 1 0 0 1 1 10000
1 0 0 0 1 0 0
1 1 0 1 1 1 10000
0 1 0 1 1 1 10000
0 0 0 0 1 0 10000
1 1 0 0 1 1 0
0 1 0 0 0 0 10000
1 0 0 0 0 1 0
1 1 0 1 0 0 10000
0 1 0 1 0 1 10000
0 1 1 1 1 0 0
1 1 0 0 0 1 10000
1 0 1 1 1 0 0
1 1 1 1 1 1 0
1 0 0 0 1 1 10000
6 14 15 16 21 6 18 0 64
1 0 0 1 1 1 10000
0 1 0 1 1 0 10000
0 1 1 1 0 1 0
1 1 0 0 1 0 10000
0 0 1 0 1 0 0
0 1 1 0 0 0 10000
1 0 0 0 0 0 10000
0 1 1 1 1 1 10000
1 0 0 1 0 0 0
1 1 1 1 1 0 10000
0 0 1 0 0 1 0
0 1 1 0 1 1 0
0 0 1 1 0 0 0
0 1 1 1 0 0 10000
1 0 1 1 0 1 0
0 0 1 0 1 1 10000
1 1 1 0 1 0 10000
0 1 1 0 0 1 10000
1 0 1 0 0 0 10000
0 0 1 1 1 1 10000
1 1 1 1 0 0 10000
1 0 1 1 1 1 10000
1 0 0 1 1 0 10000
0 0 1 0 0 0 10000
1 1 1 0 0 1 10000
0 1 1 0 1 0 10000
1 0 1 0 1 1 0
0 0 1 1 0 1 10000
0 0 0 1 1 0 10000
1 0 1 1 0 0 10000
1 1 1 0 1 1 10000
1 0 1 0 0 1 10000
1 1 1 1 0 1 10000
0 0 1 1 1 0 10000
0 0 0 1 0 1 10000
0 0 0 0 0 0 0
1 1 1 0 0 0 10000
1 0 1 0 1 0 10000
0 1 0 0 1 0 0
0 0 0 1 1 1 10000
1 1 0 1 1 0 0
0 0 0 0 1 1 10000
1 0 0 1 0 1 10000
0 1 0 0 0 1 0
0 0 0 1 0 0 10000
1 1 0 1 0 1 0
0 1 0 1 0 0 0
0 0 0 0 0 1 10000
1 1 0 0 0 0 10000
0 1 0 0 1 1 10000
1 0 0 0 1 0 0
1 1 0 1 1 1 10000
0 1 0 1 1 1 10000
0 0 0 0 1 0 10000
1 1 0 0 1 1 0
0 1 0 0 0 0 10000
1 0 0 0 0 1 0
1 1 0 1 0 0 10000
0 1 0 1 0 1 10000
0 1 1 1 1 0 0
1 1 0 0 0 1 10000
1 0 1 1 1 0 0
1 1 1 1 1 1 0
1 0 0 0 1 1 10000
4 17 18 13 16 0 16
1 0 1 1 10000
1 1 0 1 10000
1 0 0 0 10000
0 1 1 0 0
1 0 1 0 0
0 0 0 1 10000
0 0 1 1 10000
1 0 0 1 0
0 1 0 0 10000
1 1 1 1 0
0 0 0 0 0
0 0 1 0 10000
0 1 0 1 0
1 1 1 0 10000
0 1 1 1 10000
1 1 0 0 10000
6 19 20 21 1 7 14 0 64
1 0 0 1 1 1 10000
0 1 0 1 1 0 10000
0 1 1 1 0 1 0
1 1 0 0 1 0 10000
0 0 1 0 1 0 0
0 1 1 0 0 0 10000
1 0 0 0 0 0 10000
0 1 1 1 1 1 10000
1 0 0 1 0 0 0
1 1 1 1 1 0 10000
0 0 1 0 0 1 0
0 1 1 0 1 1 0
0 0 1 1 0 0 0
0 1 1 1 0 0 10000
1 0 1 1 0 1 0
0 0 1 0 1 1 10000
1 1 1 0 1 0 10000
0 1 1 0 0 1 10000
1 0 1 0 0 0 10000
0 0 1 1 1 1 10000
1 1 1 1 0 0 10000
1 0 1 1 1 1 10000
1 0 0 1 1 0 10000
0 0 1 0 0 0 10000
1 1 1 0 0 1 10000
0 1 1 0 1 0 10000
1 0 1 0 1 1 0
0 0 1 1 0 1 10000
0 0 0 1 1 0 10000
1 0 1 1 0 0 10000
1 1 1 0 1 1 10000
1 0 1 0 0 1 10000
1 1 1 1 0 1 10000
0 0 1 1 1 0 10000
0 0 0 1 0 1 10000
0 0 0 0 0 0 0
1 1 1 0 0 0 10000
1 0 1 0 1 0 10000
0 1 0 0 1 0 0
0 0 0 1 1 1 10000
1 1 0 1 1 0 0
0 0 0 0 1 1 10000
1 0 0 1 0 1 10000
0 1 0 0 0 1 0
0 0 0 1 0 0 10000
1 1 0 1 0 1 0
0 1 0 1 0 0 0
0 0 0 0 0 1 10000
1 1 0 0 0 0 10000
0 1 0 0 1 1 10000
1 0 0 0 1 0 0
1 1 0 1 1 1 10000
0 1 0 1 1 1 10000
0 0 0 0 1 0 10000
1 1 0 0 1 1 0
0 1 0 0 0 0 10000
1 0 0 0 0 1 0
1 1 0 1 0 0 10000
0 1 0 1 0 1 10000
0 1 1 1 1 0 0
1 1 0 0 0 1 10000
1 0 1 1 1 0 0
1 1 1 1 1 1 0
1 0 0 0 1 1 10000
